interdiction/MCDM/NO_CORR/GEN_FROM_60/20_ITEMS_1000_GEN/K5020W13.KNP.mps
NAME          BLANK   
ROWS
 N  OBJROW
 L  R0000000
COLUMNS
    C0000000  OBJROW     -10.          R0000000  526.        
    C0000001  OBJROW     -201.         R0000000  699.        
    C0000002  OBJROW     -840.         R0000000  288.        
    C0000003  OBJROW     -976.         R0000000  679.        
    C0000004  OBJROW     -489.         R0000000  708.        
    C0000005  OBJROW     -363.         R0000000  179.        
    C0000006  OBJROW     -924.         R0000000  665.        
    C0000007  OBJROW     -389.         R0000000  625.        
    C0000008  OBJROW     -381.         R0000000  429.        
    C0000009  OBJROW     -998.         R0000000  567.        
    C0000010  OBJROW     -955.         R0000000  132.        
    C0000011  OBJROW     -143.         R0000000  191.        
    C0000012  OBJROW     -276.         R0000000  626.        
    C0000013  OBJROW     -237.         R0000000  250.        
    C0000014  OBJROW     -227.         R0000000  618.        
    C0000015  OBJROW     -955.         R0000000  18.         
    C0000016  OBJROW     -975.         R0000000  124.        
    C0000017  OBJROW     -776.         R0000000  330.        
    C0000018  OBJROW     -558.         R0000000  130.        
    C0000019  OBJROW     -278.         R0000000  196.        
RHS
    RHS       R0000000  14228.      
BOUNDS
 BV BOUND     C0000000  1.          
 BV BOUND     C0000001  1.          
 BV BOUND     C0000002  1.          
 BV BOUND     C0000003  1.          
 BV BOUND     C0000004  1.          
 BV BOUND     C0000005  1.          
 BV BOUND     C0000006  1.          
 BV BOUND     C0000007  1.          
 BV BOUND     C0000008  1.          
 BV BOUND     C0000009  1.          
 BV BOUND     C0000010  1.          
 BV BOUND     C0000011  1.          
 BV BOUND     C0000012  1.          
 BV BOUND     C0000013  1.          
 BV BOUND     C0000014  1.          
 BV BOUND     C0000015  1.          
 BV BOUND     C0000016  1.          
 BV BOUND     C0000017  1.          
 BV BOUND     C0000018  1.          
 BV BOUND     C0000019  1.          
ENDATA
