data/MCDM/NO_CORR/GEN_FROM_60/20_ITEMS_1000_GEN/K5020W13.KNP.txt
N 20
M 21
LC 20
LC 21
LC 22
LC 23
LC 24
LC 25
LC 26
LC 27
LC 28
LC 29
LC 30
LC 31
LC 32
LC 33
LC 34
LC 35
LC 36
LC 37
LC 38
LC 39
LR 1
LR 2
LR 3
LR 4
LR 5
LR 6
LR 7
LR 8
LR 9
LR 10
LR 11
LR 12
LR 13
LR 14
LR 15
LR 16
LR 17
LR 18
LR 19
LR 20
LR 21
LO -10
LO -201
LO -840
LO -976
LO -489
LO -363
LO -924
LO -389
LO -381
LO -998
LO -955
LO -143
LO -276
LO -237
LO -227
LO -955
LO -975
LO -776
LO -558
LO -278
OS 1
IC 904
IC 954
IC 280
IC 811
IC 806
IC 23
IC 871
IC 420
IC 401
IC 524
IC 893
IC 725
IC 358
IC 488
IC 575
IC 703
IC 618
IC 234
IC 417
IC 711
IB 5858
